
# PYTHONPATH must include directory above plugin directory.
#     Define either externally or here, then import plugin.
sys.path.insert(0, './..')
import libresponse_psi4

molecule {
O
H 1 R
H 1 R 2 A

R = .9
A = 104.5
}

set {
  basis sto-3g
}

set libresponse_psi4 {
  print 1
}

energy('libresponse_psi4')

libresponse_psi4.exampleFN()
